example4.sol
# Solution for model Transport
# Objective value = 41100
B0(1) 1
B1(1) 1
B2(1) 1
C3(2) 0
C4(2) 0
C5(2) 900
C6(2) 300
C7(2) 500
C8(2) 300
C9(2) 600
C10(2) 0
C11(2) 0
