example4.log

Gurobi 7.5.2 (mac64, Java) logging started Tue Apr 10 18:31:12 2018

Academic license - for non-commercial use only
Optimize a model with 6 rows, 12 columns and 21 nonzeros
Variable types: 9 continuous, 3 integer (3 binary)
Coefficient statistics:
  Matrix range     [1e+00, 1e+03]
  Objective range  [9e+00, 4e+01]
  Bounds range     [1e+00, 1e+00]
  RHS range        [6e+02, 1e+03]

Loaded MIP start with objective 41100

Presolve removed 0 rows and 2 columns
Presolve time: 0.00s
Presolved: 6 rows, 10 columns, 19 nonzeros
Variable types: 9 continuous, 1 integer (1 binary)

Root relaxation: cutoff, 3 iterations, 0.00 seconds

    Nodes    |    Current Node    |     Objective Bounds      |     Work
 Expl Unexpl |  Obj  Depth IntInf | Incumbent    BestBd   Gap | It/Node Time

     0     0     cutoff    0      41100.0000 41100.0000  0.00%     -    0s

Explored 0 nodes (3 simplex iterations) in 0.01 seconds
Thread count was 4 (of 4 available processors)

Solution count 1: 41100 

Optimal solution found (tolerance 1.00e-04)
Best objective 4.110000000000e+04, best bound 4.110000000000e+04, gap 0.0000%
Warning: variable name "Transport von0nach0" has a space
Warning: default variable names used to write solution file

Gurobi 7.5.2 (mac64, Java) logging started Tue Apr 17 19:01:29 2018

Academic license - for non-commercial use only
Optimize a model with 6 rows, 12 columns and 21 nonzeros
Variable types: 9 continuous, 3 integer (3 binary)
Coefficient statistics:
  Matrix range     [1e+00, 1e+03]
  Objective range  [9e+00, 4e+01]
  Bounds range     [1e+00, 1e+00]
  RHS range        [6e+02, 1e+03]

Loaded MIP start with objective 41100

Presolve removed 0 rows and 2 columns
Presolve time: 0.01s
Presolved: 6 rows, 10 columns, 19 nonzeros
Variable types: 9 continuous, 1 integer (1 binary)

Root relaxation: cutoff, 3 iterations, 0.00 seconds

    Nodes    |    Current Node    |     Objective Bounds      |     Work
 Expl Unexpl |  Obj  Depth IntInf | Incumbent    BestBd   Gap | It/Node Time

     0     0     cutoff    0      41100.0000 41100.0000  0.00%     -    0s

Explored 0 nodes (3 simplex iterations) in 0.04 seconds
Thread count was 4 (of 4 available processors)

Solution count 1: 41100 

Optimal solution found (tolerance 1.00e-04)
Best objective 4.110000000000e+04, best bound 4.110000000000e+04, gap 0.0000%
Warning: variable name "Transport von0nach0" has a space
Warning: default variable names used to write solution file

Gurobi 7.5.2 (mac64, Java) logging started Tue Apr 17 19:02:26 2018

Academic license - for non-commercial use only
Optimize a model with 6 rows, 12 columns and 21 nonzeros
Variable types: 9 continuous, 3 integer (3 binary)
Coefficient statistics:
  Matrix range     [1e+00, 1e+03]
  Objective range  [9e+00, 4e+01]
  Bounds range     [1e+00, 1e+00]
  RHS range        [6e+02, 1e+03]

Loaded MIP start with objective 41100

Presolve removed 0 rows and 2 columns
Presolve time: 0.00s
Presolved: 6 rows, 10 columns, 19 nonzeros
Variable types: 9 continuous, 1 integer (1 binary)

Root relaxation: cutoff, 3 iterations, 0.00 seconds

    Nodes    |    Current Node    |     Objective Bounds      |     Work
 Expl Unexpl |  Obj  Depth IntInf | Incumbent    BestBd   Gap | It/Node Time

     0     0     cutoff    0      41100.0000 41100.0000  0.00%     -    0s

Explored 0 nodes (3 simplex iterations) in 0.00 seconds
Thread count was 4 (of 4 available processors)

Solution count 1: 41100 

Optimal solution found (tolerance 1.00e-04)
Best objective 4.110000000000e+04, best bound 4.110000000000e+04, gap 0.0000%
Warning: variable name "Transport von0nach0" has a space
Warning: default variable names used to write solution file

Gurobi 7.5.2 (mac64, Java) logging started Tue Apr 17 19:02:36 2018

Academic license - for non-commercial use only
Optimize a model with 6 rows, 12 columns and 21 nonzeros
Variable types: 9 continuous, 3 integer (3 binary)
Coefficient statistics:
  Matrix range     [1e+00, 1e+03]
  Objective range  [9e+00, 4e+01]
  Bounds range     [1e+00, 1e+00]
  RHS range        [6e+02, 1e+03]

Loaded MIP start with objective 41100

Presolve removed 0 rows and 2 columns
Presolve time: 0.00s
Presolved: 6 rows, 10 columns, 19 nonzeros
Variable types: 9 continuous, 1 integer (1 binary)

Root relaxation: cutoff, 3 iterations, 0.00 seconds

    Nodes    |    Current Node    |     Objective Bounds      |     Work
 Expl Unexpl |  Obj  Depth IntInf | Incumbent    BestBd   Gap | It/Node Time

     0     0     cutoff    0      41100.0000 41100.0000  0.00%     -    0s

Explored 0 nodes (3 simplex iterations) in 0.00 seconds
Thread count was 4 (of 4 available processors)

Solution count 1: 41100 

Optimal solution found (tolerance 1.00e-04)
Best objective 4.110000000000e+04, best bound 4.110000000000e+04, gap 0.0000%
Warning: variable name "Transport von0nach0" has a space
Warning: default variable names used to write solution file

Gurobi 7.5.2 (mac64, Java) logging started Thu Apr 26 10:50:22 2018

Academic license - for non-commercial use only
Optimize a model with 6 rows, 12 columns and 21 nonzeros
Variable types: 9 continuous, 3 integer (3 binary)
Coefficient statistics:
  Matrix range     [1e+00, 1e+03]
  Objective range  [9e+00, 4e+01]
  Bounds range     [1e+00, 1e+00]
  RHS range        [6e+02, 1e+03]

Loaded MIP start with objective 41100

Presolve removed 0 rows and 2 columns
Presolve time: 0.03s
Presolved: 6 rows, 10 columns, 19 nonzeros
Variable types: 9 continuous, 1 integer (1 binary)

Root relaxation: cutoff, 3 iterations, 0.00 seconds

    Nodes    |    Current Node    |     Objective Bounds      |     Work
 Expl Unexpl |  Obj  Depth IntInf | Incumbent    BestBd   Gap | It/Node Time

     0     0     cutoff    0      41100.0000 41100.0000  0.00%     -    0s

Explored 0 nodes (3 simplex iterations) in 0.08 seconds
Thread count was 4 (of 4 available processors)

Solution count 1: 41100 

Optimal solution found (tolerance 1.00e-04)
Best objective 4.110000000000e+04, best bound 4.110000000000e+04, gap 0.0000%
Warning: variable name "Transport von0nach0" has a space
Warning: default variable names used to write solution file

Gurobi 7.5.2 (mac64, Java) logging started Thu Apr 26 10:57:35 2018

Academic license - for non-commercial use only
Optimize a model with 6 rows, 12 columns and 21 nonzeros
Variable types: 9 continuous, 3 integer (3 binary)
Coefficient statistics:
  Matrix range     [1e+00, 1e+03]
  Objective range  [9e+00, 4e+01]
  Bounds range     [1e+00, 1e+00]
  RHS range        [6e+02, 1e+03]

Loaded MIP start with objective 41100

Presolve removed 0 rows and 2 columns
Presolve time: 0.00s
Presolved: 6 rows, 10 columns, 19 nonzeros
Variable types: 9 continuous, 1 integer (1 binary)

Root relaxation: cutoff, 3 iterations, 0.00 seconds

    Nodes    |    Current Node    |     Objective Bounds      |     Work
 Expl Unexpl |  Obj  Depth IntInf | Incumbent    BestBd   Gap | It/Node Time

     0     0     cutoff    0      41100.0000 41100.0000  0.00%     -    0s

Explored 0 nodes (3 simplex iterations) in 0.00 seconds
Thread count was 4 (of 4 available processors)

Solution count 1: 41100 

Optimal solution found (tolerance 1.00e-04)
Best objective 4.110000000000e+04, best bound 4.110000000000e+04, gap 0.0000%
Warning: variable name "Transport von0nach0" has a space
Warning: default variable names used to write solution file
